experiment/data/lkh-res/Vrp-Set-Golden-n441/Vrp-Set-Golden-n441-lkh/0.lkh1.vrp
NAME : 0
COMMENT : CVRP Instance
TYPE : CVRP
DIMENSION : 441
EDGE_WEIGHT_TYPE : EUC_2D
CAPACITY : 900
NODE_COORD_SECTION
1	0	0
2	3000	0
3	2969	427
4	2878	845
5	2729	1246
6	2524	1622
7	2267	1965
8	1965	2267
9	1622	2524
10	1246	2729
11	845	2878
12	427	2969
13	0	3000
14	-426	2969
15	-844	2878
16	-1245	2729
17	-1621	2524
18	-1964	2267
19	-2266	1965
20	-2523	1622
21	-2728	1246
22	-2877	845
23	-2968	427
24	-2999	0
25	-2968	-426
26	-2877	-844
27	-2728	-1245
28	-2523	-1621
29	-2266	-1964
30	-1964	-2266
31	-1621	-2523
32	-1245	-2728
33	-844	-2877
34	-426	-2968
35	0	-2999
36	427	-2968
37	845	-2877
38	1246	-2728
39	1622	-2523
40	1965	-2266
41	2267	-1964
42	2524	-1621
43	2729	-1245
44	2878	-844
45	2969	-426
46	6000	0
47	5939	854
48	5757	1690
49	5458	2492
50	5048	3244
51	4535	3929
52	3929	4535
53	3244	5048
54	2492	5458
55	1690	5757
56	854	5939
57	0	6000
58	-853	5939
59	-1689	5757
60	-2491	5458
61	-3243	5048
62	-3928	4535
63	-4534	3929
64	-5047	3244
65	-5457	2492
66	-5756	1690
67	-5938	854
68	-5999	0
69	-5938	-853
70	-5756	-1689
71	-5457	-2491
72	-5047	-3243
73	-4534	-3928
74	-3928	-4534
75	-3243	-5047
76	-2491	-5457
77	-1689	-5756
78	-853	-5938
79	0	-5999
80	854	-5938
81	1690	-5756
82	2492	-5457
83	3244	-5047
84	3929	-4534
85	4535	-3928
86	5048	-3243
87	5458	-2491
88	5757	-1689
89	5939	-853
90	9000	0
91	8908	1281
92	8635	2536
93	8187	3739
94	7571	4866
95	6802	5894
96	5894	6802
97	4866	7571
98	3739	8187
99	2536	8635
100	1281	8908
101	0	9000
102	-1280	8908
103	-2535	8635
104	-3738	8187
105	-4865	7571
106	-5893	6802
107	-6801	5894
108	-7570	4866
109	-8186	3739
110	-8634	2536
111	-8907	1281
112	-8999	0
113	-8907	-1280
114	-8634	-2535
115	-8186	-3738
116	-7570	-4865
117	-6801	-5893
118	-5893	-6801
119	-4865	-7570
120	-3738	-8186
121	-2535	-8634
122	-1280	-8907
123	0	-8999
124	1281	-8907
125	2536	-8634
126	3739	-8186
127	4866	-7570
128	5894	-6801
129	6802	-5893
130	7571	-4865
131	8187	-3738
132	8635	-2535
133	8908	-1280
134	12000	0
135	11878	1708
136	11514	3381
137	10916	4985
138	10095	6488
139	9069	7858
140	7858	9069
141	6488	10095
142	4985	10916
143	3381	11514
144	1708	11878
145	0	12000
146	-1707	11878
147	-3380	11514
148	-4984	10916
149	-6487	10095
150	-7857	9069
151	-9068	7858
152	-10094	6488
153	-10915	4985
154	-11513	3381
155	-11877	1708
156	-11999	0
157	-11877	-1707
158	-11513	-3380
159	-10915	-4984
160	-10094	-6487
161	-9068	-7857
162	-7857	-9068
163	-6487	-10094
164	-4984	-10915
165	-3380	-11513
166	-1707	-11877
167	0	-11999
168	1708	-11877
169	3381	-11513
170	4985	-10915
171	6488	-10094
172	7858	-9068
173	9069	-7857
174	10095	-6487
175	10916	-4984
176	11514	-3380
177	11878	-1707
178	15000	0
179	14847	2135
180	14392	4226
181	13644	6231
182	12619	8110
183	11336	9823
184	9823	11336
185	8110	12619
186	6231	13644
187	4226	14392
188	2135	14847
189	0	15000
190	-2134	14847
191	-4225	14392
192	-6230	13644
193	-8109	12619
194	-9822	11336
195	-11335	9823
196	-12618	8110
197	-13643	6231
198	-14391	4226
199	-14846	2135
200	-14999	0
201	-14846	-2134
202	-14391	-4225
203	-13643	-6230
204	-12618	-8109
205	-11335	-9822
206	-9822	-11335
207	-8109	-12618
208	-6230	-13643
209	-4225	-14391
210	-2134	-14846
211	0	-14999
212	2135	-14846
213	4226	-14391
214	6231	-13643
215	8110	-12618
216	9823	-11335
217	11336	-9822
218	12619	-8109
219	13644	-6230
220	14392	-4225
221	14847	-2134
222	18000	0
223	17817	2562
224	17271	5071
225	16373	7477
226	15143	9732
227	13603	11787
228	11787	13603
229	9732	15143
230	7477	16373
231	5071	17271
232	2562	17817
233	0	18000
234	-2561	17817
235	-5070	17271
236	-7476	16373
237	-9731	15143
238	-11786	13603
239	-13602	11787
240	-15142	9732
241	-16372	7477
242	-17270	5071
243	-17816	2562
244	-17999	0
245	-17816	-2561
246	-17270	-5070
247	-16372	-7476
248	-15142	-9731
249	-13602	-11786
250	-11786	-13602
251	-9731	-15142
252	-7476	-16372
253	-5070	-17270
254	-2561	-17816
255	0	-17999
256	2562	-17816
257	5071	-17270
258	7477	-16372
259	9732	-15142
260	11788	-13602
261	13603	-11786
262	15143	-9731
263	16373	-7476
264	17271	-5070
265	17817	-2561
266	21000	0
267	20786	2989
268	20149	5916
269	19102	8724
270	17666	11353
271	15871	13752
272	13752	15871
273	11353	17666
274	8724	19102
275	5916	20149
276	2989	20786
277	0	21000
278	-2988	20786
279	-5915	20149
280	-8723	19102
281	-11352	17666
282	-13751	15871
283	-15870	13752
284	-17665	11353
285	-19101	8724
286	-20148	5916
287	-20785	2989
288	-20999	0
289	-20785	-2988
290	-20148	-5915
291	-19101	-8723
292	-17665	-11352
293	-15870	-13751
294	-13751	-15870
295	-11352	-17665
296	-8723	-19101
297	-5915	-20148
298	-2988	-20785
299	0	-20999
300	2989	-20785
301	5916	-20148
302	8724	-19101
303	11353	-17665
304	13752	-15870
305	15871	-13751
306	17666	-11352
307	19102	-8723
308	20149	-5915
309	20786	-2988
310	24000	0
311	23756	3416
312	23028	6762
313	21831	9970
314	20190	12975
315	18138	15717
316	15717	18138
317	12975	20190
318	9970	21831
319	6762	23028
320	3416	23756
321	0	24000
322	-3415	23756
323	-6761	23028
324	-9969	21831
325	-12974	20190
326	-15716	18138
327	-18137	15717
328	-20189	12975
329	-21830	9970
330	-23027	6762
331	-23755	3416
332	-23999	0
333	-23755	-3415
334	-23027	-6761
335	-21830	-9969
336	-20189	-12974
337	-18137	-15716
338	-15716	-18137
339	-12974	-20189
340	-9969	-21830
341	-6761	-23027
342	-3415	-23755
343	0	-23999
344	3416	-23755
345	6762	-23027
346	9970	-21830
347	12975	-20189
348	15717	-18137
349	18138	-15716
350	20190	-12974
351	21831	-9969
352	23028	-6761
353	23756	-3415
354	27000	0
355	26725	3842
356	25906	7607
357	24560	11216
358	22714	14597
359	20405	17681
360	17681	20405
361	14597	22714
362	11216	24560
363	7607	25906
364	3842	26725
365	0	27000
366	-3841	26725
367	-7606	25906
368	-11215	24560
369	-14596	22714
370	-17680	20405
371	-20404	17681
372	-22713	14597
373	-24559	11216
374	-25905	7607
375	-26724	3842
376	-26999	0
377	-26724	-3841
378	-25905	-7606
379	-24559	-11215
380	-22713	-14596
381	-20404	-17680
382	-17680	-20404
383	-14596	-22713
384	-11215	-24559
385	-7606	-25905
386	-3841	-26724
387	0	-26999
388	3842	-26724
389	7607	-25905
390	11216	-24559
391	14597	-22713
392	17681	-20404
393	20405	-17680
394	22714	-14596
395	24560	-11215
396	25906	-7606
397	26725	-3841
398	30000	0
399	29695	4269
400	28785	8452
401	27289	12462
402	25238	16219
403	22672	19646
404	19646	22672
405	16219	25238
406	12462	27289
407	8452	28785
408	4269	29695
409	0	30000
410	-4268	29695
411	-8451	28785
412	-12461	27289
413	-16218	25238
414	-19645	22672
415	-22671	19646
416	-25237	16219
417	-27288	12462
418	-28784	8452
419	-29694	4269
420	-29999	0
421	-29694	-4268
422	-28784	-8451
423	-27288	-12461
424	-25237	-16218
425	-22671	-19645
426	-19645	-22671
427	-16218	-25237
428	-12461	-27288
429	-8451	-28784
430	-4268	-29694
431	0	-29999
432	4269	-29694
433	8452	-28784
434	12462	-27288
435	16219	-25237
436	19646	-22671
437	22672	-19645
438	25238	-16218
439	27289	-12461
440	28785	-8451
441	29695	-4268
DEMAND_SECTION
1	0
2	10
3	30
4	30
5	10
6	10
7	30
8	30
9	10
10	10
11	30
12	30
13	10
14	10
15	30
16	30
17	10
18	10
19	30
20	30
21	10
22	10
23	30
24	30
25	10
26	10
27	30
28	30
29	10
30	10
31	30
32	30
33	10
34	10
35	30
36	30
37	10
38	10
39	30
40	30
41	10
42	10
43	30
44	30
45	10
46	10
47	30
48	30
49	10
50	10
51	30
52	30
53	10
54	10
55	30
56	30
57	10
58	10
59	30
60	30
61	10
62	10
63	30
64	30
65	10
66	10
67	30
68	30
69	10
70	10
71	30
72	30
73	10
74	10
75	30
76	30
77	10
78	10
79	30
80	30
81	10
82	10
83	30
84	30
85	10
86	10
87	30
88	30
89	10
90	10
91	30
92	30
93	10
94	10
95	30
96	30
97	10
98	10
99	30
100	30
101	10
102	10
103	30
104	30
105	10
106	10
107	30
108	30
109	10
110	10
111	30
112	30
113	10
114	10
115	30
116	30
117	10
118	10
119	30
120	30
121	10
122	10
123	30
124	30
125	10
126	10
127	30
128	30
129	10
130	10
131	30
132	30
133	10
134	10
135	30
136	30
137	10
138	10
139	30
140	30
141	10
142	10
143	30
144	30
145	10
146	10
147	30
148	30
149	10
150	10
151	30
152	30
153	10
154	10
155	30
156	30
157	10
158	10
159	30
160	30
161	10
162	10
163	30
164	30
165	10
166	10
167	30
168	30
169	10
170	10
171	30
172	30
173	10
174	10
175	30
176	30
177	10
178	10
179	30
180	30
181	10
182	10
183	30
184	30
185	10
186	10
187	30
188	30
189	10
190	10
191	30
192	30
193	10
194	10
195	30
196	30
197	10
198	10
199	30
200	30
201	10
202	10
203	30
204	30
205	10
206	10
207	30
208	30
209	10
210	10
211	30
212	30
213	10
214	10
215	30
216	30
217	10
218	10
219	30
220	30
221	10
222	10
223	30
224	30
225	10
226	10
227	30
228	30
229	10
230	10
231	30
232	30
233	10
234	10
235	30
236	30
237	10
238	10
239	30
240	30
241	10
242	10
243	30
244	30
245	10
246	10
247	30
248	30
249	10
250	10
251	30
252	30
253	10
254	10
255	30
256	30
257	10
258	10
259	30
260	30
261	10
262	10
263	30
264	30
265	10
266	10
267	30
268	30
269	10
270	10
271	30
272	30
273	10
274	10
275	30
276	30
277	10
278	10
279	30
280	30
281	10
282	10
283	30
284	30
285	10
286	10
287	30
288	30
289	10
290	10
291	30
292	30
293	10
294	10
295	30
296	30
297	10
298	10
299	30
300	30
301	10
302	10
303	30
304	30
305	10
306	10
307	30
308	30
309	10
310	10
311	30
312	30
313	10
314	10
315	30
316	30
317	10
318	10
319	30
320	30
321	10
322	10
323	30
324	30
325	10
326	10
327	30
328	30
329	10
330	10
331	30
332	30
333	10
334	10
335	30
336	30
337	10
338	10
339	30
340	30
341	10
342	10
343	30
344	30
345	10
346	10
347	30
348	30
349	10
350	10
351	30
352	30
353	10
354	10
355	30
356	30
357	10
358	10
359	30
360	30
361	10
362	10
363	30
364	30
365	10
366	10
367	30
368	30
369	10
370	10
371	30
372	30
373	10
374	10
375	30
376	30
377	10
378	10
379	30
380	30
381	10
382	10
383	30
384	30
385	10
386	10
387	30
388	30
389	10
390	10
391	30
392	30
393	10
394	10
395	30
396	30
397	10
398	10
399	30
400	30
401	10
402	10
403	30
404	30
405	10
406	10
407	30
408	30
409	10
410	10
411	30
412	30
413	10
414	10
415	30
416	30
417	10
418	10
419	30
420	30
421	10
422	10
423	30
424	30
425	10
426	10
427	30
428	30
429	10
430	10
431	30
432	30
433	10
434	10
435	30
436	30
437	10
438	10
439	30
440	30
441	10
DEPOT_SECTION
1
-1
EOF
