experiment/data/lkh-res/Vrp-Set-Golden-n441/Vrp-Set-Golden-n441-lkh/0.lkh1.tour
NAME : 0.1162822.tour
COMMENT : Length = 1162822
COMMENT : Found by LKH-3 [Keld Helsgaun] Tue Apr  9 02:17:15 2024
TYPE : TOUR
DIMENSION : 450
TOUR_SECTION
1
34
78
77
76
75
119
120
121
122
166
167
168
169
213
212
211
210
254
255
256
257
258
259
260
216
215
214
170
171
172
128
127
126
125
124
123
79
80
81
82
83
84
443
25
24
23
22
21
65
66
67
111
110
109
153
197
241
242
243
287
331
375
419
418
374
330
286
285
329
373
417
416
372
328
284
240
196
195
151
152
108
107
63
64
20
450
33
32
31
30
29
73
117
161
205
206
207
208
252
296
340
384
428
427
383
339
338
382
426
425
381
337
336
292
293
294
295
251
250
249
248
204
160
116
72
28
444
26
70
69
68
112
113
114
158
157
156
155
154
198
199
200
201
202
246
245
244
288
332
376
420
421
377
333
289
290
334
378
422
423
424
380
379
335
291
247
203
159
115
71
27
442
74
118
162
163
164
165
209
253
297
341
385
429
430
386
342
298
299
343
387
431
432
388
344
300
301
345
389
433
434
390
346
302
303
347
391
435
436
392
348
304
305
349
393
437
438
394
350
306
262
261
217
173
129
85
448
5
49
94
138
182
226
227
228
272
316
360
404
403
359
315
271
270
314
358
402
401
357
313
269
268
312
356
400
399
355
311
267
223
224
225
181
137
93
92
91
47
48
445
50
95
139
183
184
185
229
273
274
318
317
361
405
362
406
407
363
319
275
276
320
364
408
409
365
321
277
278
322
366
410
411
367
323
279
235
234
233
232
231
230
186
142
141
140
96
53
9
446
35
36
37
38
39
40
41
42
43
44
3
4
6
7
8
51
52
97
98
99
100
101
102
103
104
60
59
58
57
56
55
54
10
11
12
13
14
449
15
16
17
61
105
149
148
147
146
145
144
143
187
188
189
190
191
192
193
237
236
280
324
368
412
413
369
325
281
282
326
370
414
415
371
327
283
239
238
194
150
106
62
18
19
447
2
46
90
133
132
131
175
176
177
134
135
136
180
179
178
221
220
264
265
222
266
310
354
398
441
397
353
309
308
352
396
440
439
395
351
307
263
219
218
174
130
86
87
88
89
45
-1
EOF
